125
[25,26,27,28,29,30,31,32,33,34,35,36,37,38,39,40,41,42,43,44,45,46,47,48,49,50,51,52,53,54,55,56,57,58,59,60,61,62,63,64,65,66,67,68,69,70,71,72,73,74,75,76,77,78,79,80,81,82,83,84,85,86,87]
[11,15,10,13,12,12,13,10,15,9,9,8,10,12,9,5,9,12,11,17,11,8,17,12,14,16,17,9,10,10,16,13,12,13,8,14,17,11,18,12,9,14,12,14,17,11,10,11,10,11,8,9,7,11,9,16,11,19,13,9,12,17,10]
